&GLOBAL
  PROJECT sn
  PRINT_LEVEL MEDIUM
  RUN_TYPE ENERGY
&END GLOBAL

&FORCE_EVAL
  METHOD QS
  &DFT
    BASIS_SET_FILE_NAME ALL_BASIS_SETS
    BASIS_SET_FILE_NAME BASIS_MOLOPT
    POTENTIAL_FILE_NAME GTH_POTENTIALS
#    WFN_RESTART_FILE_NAME prev.wfn
    UKS T
    CHARGE -4
    MULTIPLICITY 1
    &MGRID
      NGRIDS 4
    &END MGRID
    &QS
      METHOD GPW
    &END QS
#    &POISSON
#       PERIODIC NONE 
#       PSOLVER MT 
#    &END POISSON
    &SCF
      SCF_GUESS RESTART
      MAX_SCF  50
      EPS_SCF 1.0e-7
      &OT
        MINIMIZER DIIS
        PRECONDITIONER FULL_ALL
      &END OT
      &OUTER_SCF
        MAX_SCF  10
        EPS_SCF 1.0e-7
      &END
    &END SCF
    &XC
      &XC_FUNCTIONAL BLYP
      &END XC_FUNCTIONAL
    &END XC
  &END DFT
  &SUBSYS
    &KIND  Sn
      BASIS_SET aug-cc-pV5Z-PP
      POTENTIAL ECP
      &POTENTIAL
      Sn nelec 28
      Sn ul
      2      1.0000000              0.0000000
      Sn S
      2     17.4204140            279.9886820
      2      7.6311550             62.3778100
      Sn P
      2     16.1310240             66.1625230
      2     15.6280770            132.1743960
      2      7.3256080             16.3394170
      2      6.9425190             32.4889590
      Sn D
      2     15.5149760             36.3874410
      2     15.1881600             54.5078410
      2      5.4560240              8.6968230
      2      5.3631050             12.8402080
      Sn F
      2     12.2823480            -12.5763330
      2     12.2721500            -16.5959440
      &END
      &BS
        &ALPHA
          N    5 4 ! main atomic number
          L    1 0 ! p,s orbitals
          NEL -2 -2 ! (+)Added/Removed(-) electrons (new electrons + existing_alpha_electrons)/2
        &END ALPHA
        &BETA
          N    5 4  ! main atomic number
          L    1 0 ! p,s orbitals
          NEL  -2 -2 ! Added(+)/Removed(-) electrons counted as (new electrons + existing_alpha_electrons)/2
        &END BETA
      &END BS
#     MAGNETIZATION 1.0
    &END
    &KIND  Cl
      BASIS_SET  DZVP-MOLOPT-GTH
      POTENTIAL  GTH-BLYP-q7
    &END
    &KIND  C
      BASIS_SET  DZVP-MOLOPT-GTH
      POTENTIAL  GTH-BLYP-q4
    &END
    &KIND N
      BASIS_SET  DZVP-MOLOPT-GTH
      POTENTIAL  GTH-BLYP-q5
    &END
    &KIND  H
      BASIS_SET  DZVP-MOLOPT-GTH
      POTENTIAL  GTH-BLYP-q1
    &END
    &CELL
      ABC 40 40 40
#      PERIODIC NONE
    &END CELL
    &COORD
     N    20.018122    17.893396    19.968609
     C    21.127171    17.126114    19.829362
     C    20.701064    15.762240    19.729266
     C    19.346237    15.749952    19.830160
     C    18.914621    17.106497    19.988330
     C    22.448713    17.587952    19.781492
     C    22.889544    18.916792    19.832847
     N    22.103076    20.020065    19.872959
     C    22.875373    21.133326    19.921456
     C    24.244060    20.711218    19.937129
     C    24.252761    19.353845    19.879330
     C    22.414569    22.455498    19.960940
     C    21.084283    22.893896    19.991379
     N    19.983130    22.106093    20.055687
     C    18.867227    22.876015    20.064600
     C    19.283383    24.243721    19.975560
     C    20.641344    24.254804    19.934262
     Sn   19.999847    20.000042    19.997478
     Cl   20.124955    19.951932    22.375671
     C    17.546974    22.413681    20.136943
     C    17.111136    21.082924    20.180567
     N    17.895131    19.980599    20.093505
     C    17.129813    18.864652    20.177689
     C    15.771200    19.282886    20.353720
     C    15.759370    20.641463    20.351963
     C    17.589405    17.542945    20.115234
     Cl    19.874750    20.048149    17.619512
     H    25.091748    21.365322    20.001003
     H    25.108532    18.707136    19.887856
     C    23.501376    16.555561    19.662983
     C    16.558963    16.484650    20.193948
     C    16.489904    23.447809    20.171164
     C    23.449836    23.511930    19.973971
     H    21.283435    25.110152    19.852107
     H    18.624078    25.088714    19.932991
     H    14.910585    21.285497    20.476184
     H    14.933488    18.624943    20.479624
     H    18.697253    14.897261    19.781290
     H    21.350467    14.921055    19.583693
     C    23.671182    15.597528    20.657855
     C    24.657991    14.635556    20.540246
     C    25.480398    14.613862    19.426078
     C    25.315471    15.562591    18.430600
     C    24.335264    16.530940    18.548863
     H    23.034369    15.622960    21.530000
     H    24.785653    13.900290    21.321064
     H    26.247912    13.859895    19.333931
     H    25.952406    15.548143    17.558431
     H    24.197807    17.267216    17.770537
     C    16.570298    15.574418    21.246862
     C    15.604148    14.588383    21.328985
     C    14.621617    14.493976    20.357394
     C    14.607351    15.392723    19.303715
     C    15.567170    16.385334    19.222939
     H    17.333051    15.656748    22.007269
     H    15.617893    13.891686    22.154211
     H    13.869326    13.721941    20.421091
     H    13.845567    15.320330    18.541458
     H    15.564380    17.081928    18.397369
     C    16.427235    24.364421    21.216306
     C    15.435666    25.328351    21.241628
     C    14.501265    25.393472    20.221408
     C    14.559033    24.486158    19.176560
     C    15.544081    23.515804    19.152329
     H    17.151756    24.305004    22.015277
     H    15.392021    26.031137    22.060638
     H    13.730008    26.149003    20.240652
     H    13.834386    24.534619    18.377115
     H    15.597717    22.811916    18.334739
     C    24.334662    23.652530    18.909222
     C    25.299805    24.643065    18.929102
     C    25.397939    25.498408    20.013975
     C    24.522386    25.362717    21.078523
     C    23.550820    24.378795    21.058234
     H    24.249452    22.989917    18.060399
     H    25.977705    24.747835    18.094795
     H    26.154439    26.268795    20.029704
     H    24.596666    26.025423    21.928156
     H    22.871741    24.264168    21.890401
    &END
  &END SUBSYS
&END FORCE_EVAL
